<number of tasks>
50

<cycle time>
1000

<order strength>
0.205


<task times>
1 291
2 48
3 319
4 64
5 41
6 350
7 207
8 175
9 97
10 95
11 96
12 63
13 233
14 179
15 178
16 162
17 29
18 208
19 277
20 141
21 91
22 138
23 121
24 187
25 158
26 281
27 86
28 221
29 66
30 204
31 62
32 187
33 67
34 370
35 76
36 132
37 109
38 202
39 125
40 109
41 48
42 219
43 119
44 116
45 88
46 84
47 37
48 113
49 174
50 105

<precedence relations>
1,20
2,20
3,11
4,13
6,10
7,12
9,10
9,12
9,44
10,20
11,15
12,19
13,14
13,16
13,17
13,18
14,20
15,21
16,24
17,25
18,23
19,22
20,26
20,27
20,28
20,29
21,31
22,30
24,32
24,48
27,36
29,37
30,33
31,35
32,34
32,38
33,41
34,39
36,40
36,42
37,43
38,44
39,45
40,46
42,47
42,48
43,49
44,50

<end>
